solution status: optimal solution found
objective value:                                    6
x77                                                 1 	(obj:1)
x79                                                 1 	(obj:1)
x107                                                1 	(obj:1)
x112                                                1 	(obj:1)
x114                                                1 	(obj:1)
x116                                                1 	(obj:1)
$_78_y                                             23 	(obj:0)
$_78_z                                             21 	(obj:0)
$_106_y                                            21 	(obj:0)
$_106_z                                            19 	(obj:0)
$_115_y                                            20 	(obj:0)
$_115_z                                            17 	(obj:0)
$_121_y                                            22 	(obj:0)
$_121_z                                            21 	(obj:0)
$_143_y                                            16 	(obj:0)
$_143_z                                            19 	(obj:0)
$_94_y                                             20 	(obj:0)
$_94_z                                             21 	(obj:0)
$_137_y                                            19 	(obj:0)
$_137_z                                            16 	(obj:0)
$_44_y                                             19 	(obj:0)
$_44_z                                             19 	(obj:0)
$_93_y                                             18 	(obj:0)
$_93_z                                             18 	(obj:0)
$_111_y                                            22 	(obj:0)
$_111_z                                            19 	(obj:0)
$_145_y                                            19 	(obj:0)
$_145_z                                            22 	(obj:0)
$_135_y                                            20 	(obj:0)
$_135_z                                            19 	(obj:0)
$_10_y                                             19 	(obj:0)
$_10_z                                             17 	(obj:0)
$_72_y                                             20 	(obj:0)
$_72_z                                             18 	(obj:0)
$_134_y                                            18 	(obj:0)
$_134_z                                            20 	(obj:0)
$_144_y                                            20 	(obj:0)
$_144_z                                            23 	(obj:0)
$_80_y                                             24 	(obj:0)
$_80_z                                             20 	(obj:0)
$_47_y                                             18 	(obj:0)
$_47_z                                             17 	(obj:0)
$_20_y                                             18 	(obj:0)
$_20_z                                             16 	(obj:0)
$_64_y                                             16 	(obj:0)
$_64_z                                             20 	(obj:0)
$_120_y                                            21 	(obj:0)
$_120_z                                            22 	(obj:0)
$_119_y                                            22 	(obj:0)
$_119_z                                            22 	(obj:0)
$_76_y                                             23 	(obj:0)
$_76_z                                             20 	(obj:0)
$_70_y                                             23 	(obj:0)
$_70_z                                             17 	(obj:0)
$_138_y                                            21 	(obj:0)
$_138_z                                            20 	(obj:0)
$_81_y                                             24 	(obj:0)
$_81_z                                             21 	(obj:0)
$_139_y                                            21 	(obj:0)
$_139_z                                            21 	(obj:0)
$_6_y                                              17 	(obj:0)
$_6_z                                              15 	(obj:0)
$_130_y                                            22 	(obj:0)
$_130_z                                            20 	(obj:0)
$_146_y                                            23 	(obj:0)
$_146_z                                            22 	(obj:0)
